Rodando pra 1h
Optimize a model with 490095 rows, 734078 columns and 4400655 nonzeros
Coefficient statistics:
  Matrix range    [1e+00, 1e+06]
  Objective range [2e-01, 2e-01]
  Bounds range    [1e+00, 1e+06]
  RHS range       [1e+00, 7e+02]
Presolve removed 0 rows and 0 columns (presolve time = 5s) ...
Presolve removed 0 rows and 0 columns (presolve time = 10s) ...
Presolve time: 11.74s
Presolved: 490095 rows, 734078 columns, 4400655 nonzeros
Variable types: 489364 continuous, 244714 integer (244714 binary)
Optimize a model with 490095 rows, 734078 columns and 4400655 nonzeros
Coefficient statistics:
  Matrix range    [1e+00, 1e+06]
  Objective range [2e-01, 2e-01]
  Bounds range    [1e+00, 1e+06]
  RHS range       [1e+00, 7e+02]
Presolved: 490095 rows, 734078 columns, 4400655 nonzeros


Root simplex log...

Iteration    Objective       Primal Inf.    Dual Inf.      Time
       0    0.0000000e+00   2.110683e+03   0.000000e+00     41s
    1455    0.0000000e+00   0.000000e+00   0.000000e+00     43s

Root relaxation: objective 0.000000e+00, 1455 iterations, 5.40 seconds

    Nodes    |    Current Node    |     Objective Bounds      |     Work
 Expl Unexpl |  Obj  Depth IntInf | Incumbent    BestBd   Gap | It/Node Time

     0     0    0.00000    0  721          -    0.00000      -     - 1375s
     0     0    0.00000    0  581          -    0.00000      -     - 3318s
     0     0    0.00000    0  441          -    0.00000      -     - 3320s
     0     0    0.00000    0  304          -    0.00000      -     - 3484s
     0     0    0.00000    0  164          -    0.00000      -     - 3487s
     0     0    0.00000    0   31          -    0.00000      -     - 3558s
     0     0    0.00000    0   22          -    0.00000      -     - 3562s
     0     0    0.00000    0   37          -    0.00000      -     - 3579s
     0     0          -    0               -    0.00000      -     - 3600s

Cutting planes:
  Flow cover: 724

Explored 0 nodes (494082 simplex iterations) in 3600.02 seconds
Thread count was 1 (of 4 available processors)

Time limit reached
Best objective -, best bound 0.000000000000e+00, gap -
Tempo: 3594.05 segundos

Error code = 10004
Var::get
